p tw 496 1664
1 33
2 34
3 35
4 36
5 37
6 38
7 39
8 40
9 41
10 42
11 43
12 44
13 45
14 46
15 47
16 48
17 49
18 50
19 51
20 52
21 53
22 54
23 55
24 56
25 57
26 58
27 59
28 60
29 61
30 62
31 63
32 64
33 103
33 132
33 142
33 144
34 85
34 92
34 110
34 113
35 70
35 105
35 108
35 109
36 96
36 131
36 134
36 136
37 81
37 118
37 124
37 127
38 111
38 122
38 128
38 130
39 94
39 95
39 96
39 97
40 69
40 88
40 92
40 93
41 86
41 94
41 120
41 121
42 71
42 110
42 111
42 112
43 78
43 98
43 134
43 135
44 74
44 105
44 106
44 107
45 77
45 80
45 98
45 99
46 75
46 108
46 128
46 129
47 84
47 85
47 86
47 87
48 69
48 70
48 71
48 72
49 95
49 131
49 132
49 133
50 66
50 84
50 103
50 104
51 120
51 125
51 139
51 141
52 100
52 114
52 122
52 123
53 90
53 137
53 139
53 140
54 117
54 124
54 125
54 126
55 88
55 89
55 90
55 91
56 82
56 101
56 137
56 138
57 73
57 100
57 101
57 102
58 73
58 74
58 75
58 76
59 65
59 77
59 78
59 79
60 106
60 117
60 118
60 119
61 89
61 114
61 115
61 116
62 80
62 81
62 82
62 83
63 67
63 115
63 142
63 143
64 65
64 66
64 67
64 68
65 66
65 67
65 68
65 77
65 78
65 79
66 67
66 68
66 84
66 103
66 104
67 68
67 115
67 142
67 143
68 145
68 146
68 147
68 148
69 70
69 71
69 72
69 88
69 92
69 93
70 71
70 72
70 105
70 108
70 109
71 72
71 110
71 111
71 112
72 149
72 150
72 151
72 152
73 74
73 75
73 76
73 100
73 101
73 102
74 75
74 76
74 105
74 106
74 107
75 76
75 108
75 128
75 129
76 153
76 154
76 155
76 156
77 78
77 79
77 80
77 98
77 99
78 79
78 98
78 134
78 135
79 145
79 157
79 158
79 159
80 81
80 82
80 83
80 98
80 99
81 82
81 83
81 118
81 124
81 127
82 83
82 101
82 137
82 138
83 160
83 161
83 162
83 163
84 85
84 86
84 87
84 103
84 104
85 86
85 87
85 92
85 110
85 113
86 87
86 94
86 120
86 121
87 164
87 165
87 166
87 167
88 89
88 90
88 91
88 92
88 93
89 90
89 91
89 114
89 115
89 116
90 91
90 137
90 139
90 140
91 168
91 169
91 170
91 171
92 93
92 110
92 113
93 149
93 168
93 172
93 173
94 95
94 96
94 97
94 120
94 121
95 96
95 97
95 131
95 132
95 133
96 97
96 131
96 134
96 136
97 174
97 175
97 176
97 177
98 99
98 134
98 135
99 157
99 160
99 178
99 179
100 101
100 102
100 114
100 122
100 123
101 102
101 137
101 138
102 153
102 180
102 181
102 182
103 104
103 132
103 142
103 144
104 146
104 164
104 183
104 184
105 106
105 107
105 108
105 109
106 107
106 117
106 118
106 119
107 154
107 185
107 186
107 187
108 109
108 128
108 129
109 150
109 185
109 188
109 189
110 111
110 112
110 113
111 112
111 122
111 128
111 130
112 151
112 190
112 191
112 192
113 165
113 172
113 190
113 193
114 115
114 116
114 122
114 123
115 116
115 142
115 143
116 169
116 194
116 195
116 196
117 118
117 119
117 124
117 125
117 126
118 119
118 124
118 127
119 186
119 197
119 198
119 199
120 121
120 125
120 139
120 141
121 166
121 174
121 200
121 201
122 123
122 128
122 130
123 180
123 194
123 202
123 203
124 125
124 126
124 127
125 126
125 139
125 141
126 197
126 204
126 205
126 206
127 161
127 198
127 204
127 207
128 129
128 130
129 155
129 188
129 208
129 209
130 191
130 202
130 208
130 210
131 132
131 133
131 134
131 136
132 133
132 142
132 144
133 175
133 211
133 212
133 213
134 135
134 136
135 158
135 178
135 214
135 215
136 176
136 211
136 214
136 216
137 138
137 139
137 140
138 162
138 181
138 217
138 218
139 140
139 141
140 170
140 217
140 219
140 220
141 200
141 205
141 219
141 221
142 143
142 144
143 147
143 195
143 222
143 223
144 183
144 212
144 222
144 224
145 146
145 147
145 148
145 157
145 158
145 159
146 147
146 148
146 164
146 183
146 184
147 148
147 195
147 222
147 223
148 225
148 226
148 227
148 228
149 150
149 151
149 152
149 168
149 172
149 173
150 151
150 152
150 185
150 188
150 189
151 152
151 190
151 191
151 192
152 229
152 230
152 231
152 232
153 154
153 155
153 156
153 180
153 181
153 182
154 155
154 156
154 185
154 186
154 187
155 156
155 188
155 208
155 209
156 233
156 234
156 235
156 236
157 158
157 159
157 160
157 178
157 179
158 159
158 178
158 214
158 215
159 225
159 237
159 238
159 239
160 161
160 162
160 163
160 178
160 179
161 162
161 163
161 198
161 204
161 207
162 163
162 181
162 217
162 218
163 240
163 241
163 242
163 243
164 165
164 166
164 167
164 183
164 184
165 166
165 167
165 172
165 190
165 193
166 167
166 174
166 200
166 201
167 244
167 245
167 246
167 247
168 169
168 170
168 171
168 172
168 173
169 170
169 171
169 194
169 195
169 196
170 171
170 217
170 219
170 220
171 248
171 249
171 250
171 251
172 173
172 190
172 193
173 229
173 248
173 252
173 253
174 175
174 176
174 177
174 200
174 201
175 176
175 177
175 211
175 212
175 213
176 177
176 211
176 214
176 216
177 254
177 255
177 256
177 257
178 179
178 214
178 215
179 237
179 240
179 258
179 259
180 181
180 182
180 194
180 202
180 203
181 182
181 217
181 218
182 233
182 260
182 261
182 262
183 184
183 212
183 222
183 224
184 226
184 244
184 263
184 264
185 186
185 187
185 188
185 189
186 187
186 197
186 198
186 199
187 234
187 265
187 266
187 267
188 189
188 208
188 209
189 230
189 265
189 268
189 269
190 191
190 192
190 193
191 192
191 202
191 208
191 210
192 231
192 270
192 271
192 272
193 245
193 252
193 270
193 273
194 195
194 196
194 202
194 203
195 196
195 222
195 223
196 249
196 274
196 275
196 276
197 198
197 199
197 204
197 205
197 206
198 199
198 204
198 207
199 266
199 277
199 278
199 279
200 201
200 205
200 219
200 221
201 246
201 254
201 280
201 281
202 203
202 208
202 210
203 260
203 274
203 282
203 283
204 205
204 206
204 207
205 206
205 219
205 221
206 277
206 284
206 285
206 286
207 241
207 278
207 284
207 287
208 209
208 210
209 235
209 268
209 288
209 289
210 271
210 282
210 288
210 290
211 212
211 213
211 214
211 216
212 213
212 222
212 224
213 255
213 291
213 292
213 293
214 215
214 216
215 238
215 258
215 294
215 295
216 256
216 291
216 294
216 296
217 218
217 219
217 220
218 242
218 261
218 297
218 298
219 220
219 221
220 250
220 297
220 299
220 300
221 280
221 285
221 299
221 301
222 223
222 224
223 227
223 275
223 302
223 303
224 263
224 292
224 302
224 304
225 226
225 227
225 228
225 237
225 238
225 239
226 227
226 228
226 244
226 263
226 264
227 228
227 275
227 302
227 303
228 305
228 306
228 307
228 308
229 230
229 231
229 232
229 248
229 252
229 253
230 231
230 232
230 265
230 268
230 269
231 232
231 270
231 271
231 272
232 309
232 310
232 311
232 312
233 234
233 235
233 236
233 260
233 261
233 262
234 235
234 236
234 265
234 266
234 267
235 236
235 268
235 288
235 289
236 313
236 314
236 315
236 316
237 238
237 239
237 240
237 258
237 259
238 239
238 258
238 294
238 295
239 305
239 317
239 318
239 319
240 241
240 242
240 243
240 258
240 259
241 242
241 243
241 278
241 284
241 287
242 243
242 261
242 297
242 298
243 320
243 321
243 322
243 323
244 245
244 246
244 247
244 263
244 264
245 246
245 247
245 252
245 270
245 273
246 247
246 254
246 280
246 281
247 324
247 325
247 326
247 327
248 249
248 250
248 251
248 252
248 253
249 250
249 251
249 274
249 275
249 276
250 251
250 297
250 299
250 300
251 328
251 329
251 330
251 331
252 253
252 270
252 273
253 309
253 328
253 332
253 333
254 255
254 256
254 257
254 280
254 281
255 256
255 257
255 291
255 292
255 293
256 257
256 291
256 294
256 296
257 334
257 335
257 336
257 337
258 259
258 294
258 295
259 317
259 320
259 338
259 339
260 261
260 262
260 274
260 282
260 283
261 262
261 297
261 298
262 313
262 340
262 341
262 342
263 264
263 292
263 302
263 304
264 306
264 324
264 343
264 344
265 266
265 267
265 268
265 269
266 267
266 277
266 278
266 279
267 314
267 345
267 346
267 347
268 269
268 288
268 289
269 310
269 345
269 348
269 349
270 271
270 272
270 273
271 272
271 282
271 288
271 290
272 311
272 350
272 351
272 352
273 325
273 332
273 350
273 353
274 275
274 276
274 282
274 283
275 276
275 302
275 303
276 329
276 354
276 355
276 356
277 278
277 279
277 284
277 285
277 286
278 279
278 284
278 287
279 346
279 357
279 358
279 359
280 281
280 285
280 299
280 301
281 326
281 334
281 360
281 361
282 283
282 288
282 290
283 340
283 354
283 362
283 363
284 285
284 286
284 287
285 286
285 299
285 301
286 357
286 364
286 365
286 366
287 321
287 358
287 364
287 367
288 289
288 290
289 315
289 348
289 368
289 369
290 351
290 362
290 368
290 370
291 292
291 293
291 294
291 296
292 293
292 302
292 304
293 335
293 371
293 372
293 373
294 295
294 296
295 318
295 338
295 374
295 375
296 336
296 371
296 374
296 376
297 298
297 299
297 300
298 322
298 341
298 377
298 378
299 300
299 301
300 330
300 377
300 379
300 380
301 360
301 365
301 379
301 381
302 303
302 304
303 307
303 355
303 382
303 383
304 343
304 372
304 382
304 384
305 306
305 307
305 308
305 317
305 318
305 319
306 307
306 308
306 324
306 343
306 344
307 308
307 355
307 382
307 383
308 385
308 386
308 387
308 388
309 310
309 311
309 312
309 328
309 332
309 333
310 311
310 312
310 345
310 348
310 349
311 312
311 350
311 351
311 352
312 389
312 390
312 391
312 392
313 314
313 315
313 316
313 340
313 341
313 342
314 315
314 316
314 345
314 346
314 347
315 316
315 348
315 368
315 369
316 393
316 394
316 395
316 396
317 318
317 319
317 320
317 338
317 339
318 319
318 338
318 374
318 375
319 385
319 397
319 398
319 399
320 321
320 322
320 323
320 338
320 339
321 322
321 323
321 358
321 364
321 367
322 323
322 341
322 377
322 378
323 400
323 401
323 402
323 403
324 325
324 326
324 327
324 343
324 344
325 326
325 327
325 332
325 350
325 353
326 327
326 334
326 360
326 361
327 404
327 405
327 406
327 407
328 329
328 330
328 331
328 332
328 333
329 330
329 331
329 354
329 355
329 356
330 331
330 377
330 379
330 380
331 408
331 409
331 410
331 411
332 333
332 350
332 353
333 389
333 408
333 412
333 413
334 335
334 336
334 337
334 360
334 361
335 336
335 337
335 371
335 372
335 373
336 337
336 371
336 374
336 376
337 414
337 415
337 416
337 417
338 339
338 374
338 375
339 397
339 400
339 418
339 419
340 341
340 342
340 354
340 362
340 363
341 342
341 377
341 378
342 393
342 420
342 421
342 422
343 344
343 372
343 382
343 384
344 386
344 404
344 423
344 424
345 346
345 347
345 348
345 349
346 347
346 357
346 358
346 359
347 394
347 425
347 426
347 427
348 349
348 368
348 369
349 390
349 425
349 428
349 429
350 351
350 352
350 353
351 352
351 362
351 368
351 370
352 391
352 430
352 431
352 432
353 405
353 412
353 430
353 433
354 355
354 356
354 362
354 363
355 356
355 382
355 383
356 409
356 434
356 435
356 436
357 358
357 359
357 364
357 365
357 366
358 359
358 364
358 367
359 426
359 437
359 438
359 439
360 361
360 365
360 379
360 381
361 406
361 414
361 440
361 441
362 363
362 368
362 370
363 420
363 434
363 442
363 443
364 365
364 366
364 367
365 366
365 379
365 381
366 437
366 444
366 445
366 446
367 401
367 438
367 444
367 447
368 369
368 370
369 395
369 428
369 448
369 449
370 431
370 442
370 448
370 450
371 372
371 373
371 374
371 376
372 373
372 382
372 384
373 415
373 451
373 452
373 453
374 375
374 376
375 398
375 418
375 454
375 455
376 416
376 451
376 454
376 456
377 378
377 379
377 380
378 402
378 421
378 457
378 458
379 380
379 381
380 410
380 457
380 459
380 460
381 440
381 445
381 459
381 461
382 383
382 384
383 387
383 435
383 462
383 463
384 423
384 452
384 462
384 464
385 386
385 387
385 388
385 397
385 398
385 399
386 387
386 388
386 404
386 423
386 424
387 388
387 435
387 462
387 463
388 465
389 390
389 391
389 392
389 408
389 412
389 413
390 391
390 392
390 425
390 428
390 429
391 392
391 430
391 431
391 432
392 481
393 394
393 395
393 396
393 420
393 421
393 422
394 395
394 396
394 425
394 426
394 427
395 396
395 428
395 448
395 449
396 471
397 398
397 399
397 400
397 418
397 419
398 399
398 418
398 454
398 455
399 470
400 401
400 402
400 403
400 418
400 419
401 402
401 403
401 438
401 444
401 447
402 403
402 421
402 457
402 458
403 467
404 405
404 406
404 407
404 423
404 424
405 406
405 407
405 412
405 430
405 433
406 407
406 414
406 440
406 441
407 482
408 409
408 410
408 411
408 412
408 413
409 410
409 411
409 434
409 435
409 436
410 411
410 457
410 459
410 460
411 474
412 413
412 430
412 433
413 489
414 415
414 416
414 417
414 440
414 441
415 416
415 417
415 451
415 452
415 453
416 417
416 451
416 454
416 456
417 490
418 419
418 454
418 455
419 484
420 421
420 422
420 434
420 442
420 443
421 422
421 457
421 458
422 472
423 424
423 452
423 462
423 464
424 479
425 426
425 427
425 428
425 429
426 427
426 437
426 438
426 439
427 485
428 429
428 448
428 449
429 494
430 431
430 432
430 433
431 432
431 442
431 448
431 450
432 487
433 495
434 435
434 436
434 442
434 443
435 436
435 462
435 463
436 468
437 438
437 439
437 444
437 445
437 446
438 439
438 444
438 447
439 469
440 441
440 445
440 459
440 461
441 488
442 443
442 448
442 450
443 477
444 445
444 446
444 447
445 446
445 459
445 461
446 475
447 492
448 449
448 450
449 483
450 491
451 452
451 453
451 454
451 456
452 453
452 462
452 464
453 480
454 455
454 456
455 486
456 493
457 458
457 459
457 460
458 473
459 460
459 461
460 476
461 478
462 463
462 464
463 466
464 496
